sifdecoder -A pc64.lnx.gfo -st   DUAL1

 Problem name: DUAL1

 Double precision version will be formed

 The objective function uses 1 nonlinear group
 
 There is 1 linear equality constraint
 
 There are 85 variables bounded from below and above 
 
 
 File successfully decoded
 CUTEST: tools (double precision version) compiled successfully
 CUTEst: ipopt (double precision version) compiled successfully

******************************************************************************
This program contains Ipopt, a library for large-scale nonlinear optimization.
 Ipopt is released as open source code under the Eclipse Public License (EPL).
         For more information visit http://projects.coin-or.org/Ipopt
******************************************************************************

This is Ipopt version trunk, running with linear solver ma57.

Number of nonzeros in equality constraint Jacobian...:       85
Number of nonzeros in inequality constraint Jacobian.:        0
Number of nonzeros in Lagrangian Hessian.............:     3558

Total number of variables............................:       85
                     variables with only lower bounds:        0
                variables with lower and upper bounds:       85
                     variables with only upper bounds:        0
Total number of equality constraints.................:        1
Total number of inequality constraints...............:        0
        inequality constraints with only lower bounds:        0
   inequality constraints with lower and upper bounds:        0
        inequality constraints with only upper bounds:        0

iter    objective    inf_pr   inf_du lg(mu)  ||d||  lg(rg) alpha_du alpha_pr  ls
   0  5.9984962e-01 1.50e-01 5.64e+00  -1.0 0.00e+00    -  0.00e+00 0.00e+00   0
   1  1.6333672e-01 7.35e-03 6.78e-01  -1.0 1.76e-02    -  1.00e+00 9.51e-01f  1
   2  1.7171060e-01 4.09e-16 2.28e-15  -1.7 1.78e-03    -  1.00e+00 1.00e+00f  1
   3  8.1923803e-02 3.75e-16 1.16e+00  -3.8 2.31e-02    -  5.60e-01 1.00e+00f  1
   4  5.3243141e-02 4.68e-17 6.75e-01  -3.8 1.98e-02    -  6.00e-01 1.00e+00f  1
   5  4.4109603e-02 7.46e-17 1.87e-01  -3.8 1.24e-02    -  7.84e-01 1.00e+00f  1
   6  3.9581152e-02 2.24e-16 3.03e-02  -3.8 6.47e-03    -  8.89e-01 1.00e+00f  1
   7  3.7451195e-02 3.66e-16 2.03e-15  -3.8 4.83e-03    -  1.00e+00 1.00e+00f  1
   8  3.6160733e-02 4.42e-16 1.77e-02  -5.7 5.29e-03    -  7.43e-01 1.00e+00f  1
   9  3.5399771e-02 1.87e-16 1.38e-02  -5.7 7.40e-03    -  6.26e-01 1.00e+00f  1
iter    objective    inf_pr   inf_du lg(mu)  ||d||  lg(rg) alpha_du alpha_pr  ls
  10  3.5129219e-02 3.11e-16 2.24e-03  -5.7 3.64e-03    -  8.99e-01 1.00e+00f  1
  11  3.5063451e-02 1.20e-16 2.43e-15  -5.7 1.22e-03    -  1.00e+00 1.00e+00f  1
  12  3.5020877e-02 2.06e-16 2.82e-04  -8.6 1.06e-03    -  9.53e-01 8.91e-01f  1
  13  3.5014133e-02 9.80e-17 1.41e-04  -8.6 2.98e-04    -  9.73e-01 9.02e-01f  1
  14  3.5013103e-02 1.53e-16 2.45e-15  -8.6 9.12e-05    -  1.00e+00 1.00e+00f  1
  15  3.5013029e-02 2.35e-16 1.98e-15  -8.6 3.19e-05    -  1.00e+00 1.00e+00f  1
  16  3.5012986e-02 5.74e-17 3.52e-15  -9.0 1.36e-05    -  1.00e+00 1.00e+00h  1

Number of Iterations....: 16

                                   (scaled)                 (unscaled)
Objective...............:   3.5012985957746302e-02    3.5012985957746302e-02
Dual infeasibility......:   3.5223303776466643e-15    3.5223303776466643e-15
Constraint violation....:   5.7449043500567459e-17    5.7449043500567459e-17
Complementarity.........:   3.1100244253619384e-09    3.1100244253619384e-09
Overall NLP error.......:   3.1100244253619384e-09    3.1100244253619384e-09


Number of objective function evaluations             = 17
Number of objective gradient evaluations             = 17
Number of equality constraint evaluations            = 17
Number of inequality constraint evaluations          = 0
Number of equality constraint Jacobian evaluations   = 17
Number of inequality constraint Jacobian evaluations = 0
Number of Lagrangian Hessian evaluations             = 16
Total CPU secs in IPOPT (w/o function evaluations)   =      0.042
Total CPU secs in NLP function evaluations           =      0.034

EXIT: Optimal Solution Found.

************************ CUTEst statistics ************************


 Package used            :  IPOPT
 Problem                 :  DUAL1     
 # variables             =              85
 # constraints           =               1
 # objective functions   =        0.3500000E+02
 # objective gradients   =        0.1800000E+02
 # objective Hessians    =        0.1700000E+02
 # Hessian-vector prdct  =        0.0000000E+00
 # constraints functions =        0.3600000E+02
 # constraints gradients =        0.1900000E+02
 # constraints Hessians  =        0.1700000E+02
 Exit code               =               0
 Final f                 =        3.5012985957746302D-02
 Bounds feasibility      =        0.0000000000000000D+00
 Set up time             =            0.09 seconds
 Solve time              =            0.20 seconds


******************************************************************

